benchmarks/bfuzz0/29388196609538155172932112969996427562.smt2
(set-logic QF_FP)
(declare-const x0 (_ FloatingPoint 11 53))
(declare-const x1 (_ FloatingPoint 11 53))
(declare-const x2 (_ FloatingPoint 11 53))
(declare-const x3 (_ FloatingPoint 11 53))
(declare-const x4 (_ FloatingPoint 11 53))
(declare-const x5 (_ FloatingPoint 11 53))
(declare-const x6 (_ FloatingPoint 11 53))
(declare-const x7 (_ FloatingPoint 11 53))
(declare-const x8 (_ FloatingPoint 11 53))
(declare-const x9 (_ FloatingPoint 11 53))
(declare-const x10 (_ FloatingPoint 11 53))
(declare-const x11 (_ FloatingPoint 11 53))
(declare-const x12 (_ FloatingPoint 11 53))
(declare-const x13 (_ FloatingPoint 11 53))
(declare-const x14 (_ FloatingPoint 11 53))
(declare-const x15 (_ FloatingPoint 11 53))
(declare-const x16 (_ FloatingPoint 11 53))
(assert (fp.gt (fp.div RNE (fp.add RNE (fp.neg x12) (fp.add RNE x2 x9)) (fp.mul RNE (fp.neg x2) (fp.sub RNE x3 x9))) (fp.mul RNE (fp.add RNE (fp.div RNE x4 x6) (fp.div RNE x7 x4)) (fp.div RNE (fp.add RNE x2 x3) (fp.neg x8)))))
(assert (fp.geq (fp.div RNE (fp.sub RNE (fp.div RNE x14 x3) (fp.neg x5)) (fp.sub RNE (fp.neg x8) (fp.div RNE x0 x14))) (fp.mul RNE (fp.div RNE (fp.mul RNE x9 x1) (fp.mul RNE x10 x15)) (fp.div RNE (fp.div RNE x1 x14) (fp.neg x8)))))
(assert (fp.gt (fp.div RNE (fp.sub RNE (fp.div RNE x7 x7) (fp.div RNE x0 x11)) (fp.mul RNE (fp.div RNE x11 x0) (fp.neg x7))) (fp.mul RNE (fp.div RNE (fp.mul RNE x9 x4) (fp.mul RNE x7 x12)) (fp.mul RNE (fp.div RNE x14 x0) (fp.add RNE x13 x9)))))
(assert (fp.geq (fp.mul RNE (fp.div RNE (fp.neg x6) (fp.add RNE x6 x11)) (fp.neg (fp.sub RNE x15 x5))) (fp.div RNE (fp.div RNE (fp.add RNE x4 x14) (fp.neg x5)) (fp.add RNE (fp.sub RNE x3 x14) (fp.neg x7)))))
(assert (fp.eq (fp.sub RNE (fp.mul RNE (fp.mul RNE x6 x11) (fp.mul RNE x2 x12)) (fp.neg (fp.add RNE x3 x15))) (fp.div RNE (fp.mul RNE (fp.sub RNE x3 x4) (fp.add RNE x4 x12)) (fp.sub RNE (fp.sub RNE x5 x15) (fp.sub RNE x8 x14)))))
(check-sat)
