db/data/29388196609538155172932112969996427562.z3.out
-------------------
2500.257368107
